p td 26 78
6 4
6 5
7 2
8 1
10 2
10 7
10 4
10 8
11 5
11 9
12 11
12 2
13 4
13 12
13 11
14 9
14 11
15 11
15 2
15 12
16 2
16 3
16 11
17 10
17 15
18 16
18 1
18 9
18 6
19 12
19 3
19 5
19 13
19 11
19 15
19 6
20 15
20 8
20 7
20 10
20 4
20 16
20 3
21 16
21 4
21 19
21 13
21 15
22 18
22 1
22 14
23 13
23 21
23 17
23 10
23 18
23 15
23 9
24 3
24 6
24 8
24 15
24 11
24 13
24 1
25 23
25 12
25 18
25 16
25 7
25 15
25 4
26 17
26 16
26 13
26 21
26 10
26 20
